p cnf 61 226
-3 4 -5 0
3 -4 -5 0
-3 -4 5 0
3 4 5 0
-6 -5 0
-6 -1 0
5 1 6 0
7 -2 0
7 6 0
2 -6 -7 0
-9 -7 0
-9 -8 0
7 8 9 0
11 2 0
11 10 0
-2 -10 -11 0
-12 -9 0
-12 -11 0
9 11 12 0
13 -1 0
13 -12 0
1 12 -13 0
3 15 -16 0
-3 -15 -16 0
3 -15 16 0
-3 15 16 0
-16 10 -17 0
16 -10 -17 0
-16 -10 17 0
16 10 17 0
-10 -18 -19 0
10 18 -19 0
-10 18 19 0
10 -18 19 0
-17 19 -20 0
17 -19 -20 0
-17 -19 20 0
17 19 20 0
14 -20 -21 0
-14 20 -21 0
14 20 21 0
-14 -20 21 0
-22 -7 0
-22 1 0
7 -1 22 0
-23 -9 0
-23 -10 0
9 10 23 0
22 23 -24 0
-22 -23 -24 0
22 -23 24 0
-22 23 24 0
25 -21 0
25 24 0
21 -24 -25 0
-26 1 0
-26 7 0
-1 -7 26 0
27 16 0
27 -3 0
-16 3 -27 0
-28 -27 0
-28 12 0
27 -12 28 0
26 28 -29 0
-26 -28 -29 0
26 -28 29 0
-26 28 29 0
25 29 -30 0
-25 -29 -30 0
25 -29 30 0
-25 29 30 0
-13 30 -31 0
13 -30 -31 0
-13 -30 31 0
13 30 31 0
33 10 0
33 32 0
-10 -32 -33 0
2 32 -34 0
-2 -32 -34 0
2 -32 34 0
-2 32 34 0
5 -17 -35 0
-5 17 -35 0
5 17 35 0
-5 -17 35 0
36 34 0
36 -35 0
-34 35 -36 0
-37 2 0
-37 1 0
-2 -1 37 0
38 -37 0
38 11 0
37 -11 -38 0
-39 36 0
-39 -38 0
-36 38 39 0
40 -33 0
40 39 0
33 -39 -40 0
-41 -31 0
-41 -40 0
31 40 41 0
42 -5 0
42 -11 0
5 11 -42 0
43 -6 0
43 -42 0
6 42 -43 0
44 -5 0
44 -11 0
5 11 -44 0
-45 -44 0
-45 1 0
44 -1 45 0
-46 -32 0
-46 44 0
32 -44 46 0
-3 46 -47 0
3 -46 -47 0
-3 -46 47 0
3 46 47 0
-45 -47 -48 0
45 47 -48 0
-45 47 48 0
45 -47 48 0
-49 -43 0
-49 48 0
43 -48 49 0
-4 8 -50 0
4 -8 -50 0
-4 -8 50 0
4 8 50 0
8 -5 -51 0
-8 5 -51 0
8 5 51 0
-8 -5 51 0
-52 -44 0
-52 7 0
44 -7 52 0
18 52 -53 0
-18 -52 -53 0
18 -52 53 0
-18 52 53 0
51 53 -54 0
-51 -53 -54 0
51 -53 54 0
-51 53 54 0
-50 54 -55 0
50 -54 -55 0
-50 -54 55 0
50 54 55 0
56 27 0
56 11 0
-27 -11 -56 0
57 -55 0
57 56 0
55 -56 -57 0
58 49 0
58 -57 0
-49 57 -58 0
-59 10 0
-59 -52 0
-10 52 59 0
58 59 -60 0
-58 -59 -60 0
58 -59 60 0
-58 59 60 0
61 -41 0
61 -60 0
41 60 -61 0
-48 37 15 49 0
20 28 -35 31 -2 0
-35 -16 58 -13 -7 0
16 -13 30 -39 0
-13 19 57 37 -50 32 0
51 -56 52 0
12 -51 16 -59 2 37 0
8 -2 -51 12 -42 0
-45 57 28 0
54 -5 14 41 0
-25 -45 33 52 0
-27 4 0
48 8 -45 -39 -15 50 0
-3 -20 36 -25 38 61 0
14 -52 50 44 0
45 18 -16 30 55 0
40 45 -55 0
-40 42 0
1 8 -19 -59 0
-59 38 -50 -45 -14 0
6 -58 12 39 -61 0
-19 18 -53 -58 21 0
-25 26 -15 0
59 -22 -11 20 0
-38 26 10 8 0
-54 -51 23 0
-1 -23 16 0
-28 -19 25 47 -33 -2 0
12 -7 -42 34 -52 0
-29 -13 57 0
13 -42 34 0
41 -13 29 18 0
-47 -51 -29 0
33 -21 -26 37 35 55 0
50 20 0
-1 -59 -44 -58 0
39 -11 -23 -55 0
18 -49 -47 36 61 32 0
12 35 0
12 -30 0
38 -60 -29 9 31 0
-31 55 11 -36 -22 32 0
28 17 -44 0
42 -1 0
-61 -29 13 51 0
-23 19 -25 0
59 -25 -37 -15 -23 0
-45 5 0
11 9 10 -34 0
-30 54 -11 0
9 -19 -32 0
58 28 23 27 0
61 0
